
100
16002

1890 890
1512 712
189 89
567 267
945 445
1134 534
1701 801
756 356
1161 261
258 58
1512 712
378 178
756 356
378 178
756 356
378 178
645 145
387 87
1890 890
1890 890
567 267
903 203
1290 290
387 87
258 58
387 87
1890 890
903 203
378 178
1032 232
903 203
903 203
258 58
1512 712
189 89
387 87
129 29
1134 534
387 87
189 89
516 116
567 267
1290 290
645 145
1512 712
378 178
516 116
774 174
903 203
645 145
645 145
516 116
903 203
945 445
378 178
1323 623
1032 232
1890 890
189 89
1134 534
1512 712
1323 623
645 145
774 174
774 174
945 445
903 203
774 174
1890 890
1323 623
129 29
516 116
756 356
1323 623
903 203
1701 801
1290 290
774 174
1701 801
903 203
1701 801
903 203
378 178
1161 261
129 29
1290 290
1032 232
1290 290
1890 890
129 29
645 145
189 89
1512 712
516 116
945 445
567 267
1290 290
378 178
378 178
774 174
